
Gurobi 11.0.3 (mac64[x86]) logging started Wed Apr  9 13:34:01 2025

Set parameter LogFile to value "Results/Conservative_experiment/sanity_check_v23_none.log"
Set parameter TimeLimit to value 84600
Set parameter Method to value 2
Set parameter Crossover to value 0
Set parameter BarConvTol to value 1e-10
Gurobi Optimizer version 11.0.3 build v11.0.3rc0 (mac64[x86] - Darwin 23.4.0 23E214)

CPU model: Intel(R) Core(TM) i7-1060NG7 CPU @ 1.20GHz
Thread count: 4 physical cores, 8 logical processors, using up to 8 threads

Optimize a model with 1494624 rows, 1917920 columns and 7072112 nonzeros
Model fingerprint: 0xab4b8401
Coefficient statistics:
  Matrix range     [2e-01, 1e+00]
  Objective range  [6e-05, 2e+00]
  Bounds range     [0e+00, 0e+00]
  RHS range        [1e-02, 1e+03]
Presolve removed 1196402 rows and 1383341 columns (presolve time = 5s) ...
Presolve removed 1197122 rows and 1383357 columns
Presolve time: 5.83s
Presolved: 297502 rows, 534627 columns, 1909361 nonzeros
Ordering time: 0.72s

Barrier statistics:
 AA' NZ     : 3.556e+05
 Factor NZ  : 6.005e+06 (roughly 90 MB of memory)
 Factor Ops : 3.714e+09 (less than 1 second per iteration)
 Threads    : 4

                  Objective                Residual
Iter       Primal          Dual         Primal    Dual     Compl     Time
   0   2.88121643e+06  3.90743676e+09  4.14e+03 2.85e+03  5.06e+06     7s
   1  -2.73968460e+06  3.58191674e+09  9.32e+02 3.24e+03  1.62e+06     8s
   2  -3.25450053e+06  1.65935828e+09  1.34e+02 4.58e+01  6.67e+04     8s
   3  -3.29675984e+06  3.84908297e+08  1.25e+01 3.01e+00  9.09e+03     8s
   4  -3.14794508e+06  6.76018805e+07  6.93e-01 1.18e-01  8.99e+02     8s
   5  -9.02183028e+05  5.34764394e+06  2.42e-03 6.87e-03  6.77e+01     8s
   6  -7.14583931e+03  3.63252636e+05  3.75e-05 9.09e-05  4.00e+00     9s
   7   3.57330488e+04  6.63117535e+04  4.29e-07 1.89e-13  3.26e-01     9s
   8   4.37098748e+04  5.22597698e+04  1.36e-08 6.48e-14  8.94e-02     9s
   9   4.52507483e+04  4.72546291e+04  1.77e-09 1.20e-14  2.08e-02     9s
  10   4.57843556e+04  4.64882459e+04  5.07e-10 3.77e-15  7.28e-03    10s
  11   4.60019118e+04  4.62218719e+04  1.32e-10 3.55e-15  2.27e-03    10s
  12   4.60608308e+04  4.61689439e+04  5.33e-11 3.55e-15  1.12e-03    10s
  13   4.60882324e+04  4.61355466e+04  4.97e-11 3.55e-15  4.89e-04    10s
  14   4.61024467e+04  4.61183490e+04  9.34e-11 3.55e-15  1.64e-04    10s
  15   4.61054370e+04  4.61121294e+04  1.05e-10 6.48e-16  6.92e-05    11s
  16   4.61072447e+04  4.61106967e+04  5.74e-11 1.78e-15  3.57e-05    11s
  17   4.61079859e+04  4.61094271e+04  5.59e-11 7.11e-15  1.49e-05    11s
  18   4.61084221e+04  4.61089275e+04  4.07e-11 3.55e-15  5.22e-06    11s
  19   4.61085815e+04  4.61088161e+04  2.24e-10 1.78e-15  2.42e-06    11s
  20   4.61086586e+04  4.61087186e+04  1.13e-10 3.55e-15  6.20e-07    12s
  21   4.61086750e+04  4.61087017e+04  9.41e-11 3.55e-15  2.76e-07    12s
  22   4.61086849e+04  4.61086928e+04  2.50e-10 3.55e-15  8.19e-08    12s
  23   4.61086883e+04  4.61086893e+04  1.68e-09 1.78e-15  9.90e-09    12s
  24   4.61086890e+04  4.61086890e+04  6.92e-09 1.82e-12  6.23e-11    12s
  25   4.61086890e+04  4.61086890e+04  1.15e-11 1.82e-12  6.23e-14    13s

Barrier solved model in 25 iterations and 12.55 seconds (7.98 work units)
Optimal objective 4.61086890e+04

